
Gurobi 11.0.0 (win64) logging started Sat May 18 08:58:46 2024

Set parameter LogFile to value "./Results/StripPacking-SequencePairBranchRuns/Logs/SBspbM-010-StripPacking-10.log"
Set parameter TimeLimit to value 10800
Set parameter Cuts to value 0
Set parameter Presolve to value 1
Set parameter Heuristics to value 0
Set parameter LPWarmStart to value 2
Gurobi Optimizer version 11.0.0 build v11.0.0rc2 (win64 - Windows 10.0 (19045.2))

CPU model: Intel(R) Core(TM) i9-10980XE CPU @ 3.00GHz, instruction set [SSE2|AVX|AVX2|AVX512]
Thread count: 18 physical cores, 36 logical processors, using up to 18 threads

Optimize a model with 1300 rows, 156 columns and 3890 nonzeros
Model fingerprint: 0x947f51b0
Variable types: 66 continuous, 90 integer (90 binary)
Coefficient statistics:
  Matrix range     [1e+00, 1e+04]
  Objective range  [1e+00, 1e+00]
  Bounds range     [1e+00, 1e+04]
  RHS range        [1e+00, 1e+04]
Using branch priorities.

User MIP start produced solution with objective 50 (0.02s)
Loaded user MIP start with objective 50

Presolve removed 225 rows and 0 columns
Presolve time: 0.00s
Presolved: 1075 rows, 156 columns, 3305 nonzeros
Variable types: 66 continuous, 90 integer (90 binary)

Root relaxation: objective 3.500000e+01, 88 iterations, 0.00 seconds (0.00 work units)

    Nodes    |    Current Node    |     Objective Bounds      |     Work
 Expl Unexpl |  Obj  Depth IntInf | Incumbent    BestBd   Gap | It/Node Time

     0     0   35.00000    0    4   50.00000   35.00000  30.0%     -    0s
     0     0   35.00000    0    5   50.00000   35.00000  30.0%     -    0s
     0     2   35.00000    0    5   50.00000   35.00000  30.0%     -    0s
*  116   113               8      46.0000000   35.00000  23.9%  13.8    0s
*  472   348              19      45.0000000   35.00000  22.2%  13.5    0s
*  597   443              28      42.0000000   35.00000  16.7%  12.4    0s
* 1063   553              25      41.0000000   35.00000  14.6%  10.1    0s
* 2159   664              30      39.0000000   35.00000  10.3%   8.8    0s

Explored 10508 nodes (58355 simplex iterations) in 3.41 seconds (0.28 work units)
Thread count was 18 (of 36 available processors)

Solution count 6: 39 41 42 ... 50

Optimal solution found (tolerance 1.00e-04)
Best objective 3.900000000000e+01, best bound 3.900000000000e+01, gap 0.0000%

Gurobi 11.0.0 (win64) logging started Sat May 18 08:59:04 2024

Set parameter LogFile to value "./Results/StripPacking-SequencePairBranchRuns/Logs/SBspbM-010-StripPacking-10.log"
Set parameter TimeLimit to value 10800
Set parameter Cuts to value 0
Set parameter Presolve to value 1
Set parameter Heuristics to value 0
Set parameter LPWarmStart to value 2
Gurobi Optimizer version 11.0.0 build v11.0.0rc2 (win64 - Windows 10.0 (19045.2))

CPU model: Intel(R) Core(TM) i9-10980XE CPU @ 3.00GHz, instruction set [SSE2|AVX|AVX2|AVX512]
Thread count: 18 physical cores, 36 logical processors, using up to 18 threads

Optimize a model with 1300 rows, 156 columns and 3890 nonzeros
Model fingerprint: 0x947f51b0
Variable types: 66 continuous, 90 integer (90 binary)
Coefficient statistics:
  Matrix range     [1e+00, 1e+04]
  Objective range  [1e+00, 1e+00]
  Bounds range     [1e+00, 1e+04]
  RHS range        [1e+00, 1e+04]
Using branch priorities.

User MIP start produced solution with objective 50 (0.00s)
Loaded user MIP start with objective 50

Presolve removed 225 rows and 0 columns
Presolve time: 0.00s
Presolved: 1075 rows, 156 columns, 3305 nonzeros
Variable types: 66 continuous, 90 integer (90 binary)

Root relaxation: objective 3.500000e+01, 88 iterations, 0.00 seconds (0.00 work units)

    Nodes    |    Current Node    |     Objective Bounds      |     Work
 Expl Unexpl |  Obj  Depth IntInf | Incumbent    BestBd   Gap | It/Node Time

     0     0   35.00000    0    4   50.00000   35.00000  30.0%     -    0s
     0     0   35.00000    0    5   50.00000   35.00000  30.0%     -    0s
     0     2   35.00000    0    5   50.00000   35.00000  30.0%     -    0s
*  116   113               8      46.0000000   35.00000  23.9%  13.8    0s
*  472   348              19      45.0000000   35.00000  22.2%  13.5    0s
*  597   443              28      42.0000000   35.00000  16.7%  12.4    0s
* 1063   553              25      41.0000000   35.00000  14.6%  10.1    0s
* 2159   664              30      39.0000000   35.00000  10.3%   8.8    0s

Explored 10508 nodes (58355 simplex iterations) in 0.30 seconds (0.28 work units)
Thread count was 18 (of 36 available processors)

Solution count 6: 39 41 42 ... 50

Optimal solution found (tolerance 1.00e-04)
Best objective 3.900000000000e+01, best bound 3.900000000000e+01, gap 0.0000%
